; benchmark generated from python API
(set-info :status unknown)
(declare-fun S_1 () Real)
(declare-fun A_3 () Real)
(declare-fun S_4 () Real)
(declare-fun S_3 () Real)
(declare-fun L_1 () Real)
(declare-fun S_0 () Real)
(declare-fun A_0 () Real)
(declare-fun L_0 () Real)
(declare-fun S_2 () Real)
(declare-fun L0 () Real)
(declare-fun A_1 () Real)
(declare-fun L_3 () Real)
(declare-fun L_2 () Real)
(declare-fun A_2 () Real)
(declare-fun A_4 () Real)
(assert
 (let (($x9969 (<= (+ L_0 (* (- 1.0) A_0) (* (- 1.0) S_3) (* 2.0 S_1)) 0.0)))
 (let (($x791 (<= (+ L_1 (* (- (/ 1.0 2.0)) S_3) (* (/ 1.0 2.0) S_0) S_4 (* (- 1.0) A_3)) 0.0)))
 (let (($x4971 (<= (+ S_0 (* (- 1.0) S_2)) (- 5.0))))
 (let (($x37 (>= L0 0.0)))
 (let (($x3910 (<= (+ L_0 (* (- 1.0) A_0) S_0) 0.0)))
 (let ((?x1068 (* (- 1.0) S_0)))
 (let ((?x5191 (* (- 2.0) A_3)))
 (let ((?x9014 (* 2.0 A_1)))
 (let ((?x8549 (* 2.0 L_3)))
 (let ((?x6838 (* (- 2.0) L_1)))
 (let (($x74 (= L_3 L_2)))
 (let ((?x8833 (* (- (/ 5.0 2.0)) A_3)))
 (let ((?x8839 (* (/ 5.0 2.0) A_1)))
 (let ((?x8834 (* (/ 5.0 2.0) L_3)))
 (let ((?x9105 (* (- (/ 5.0 2.0)) L_1)))
 (let (($x19186 (or $x74 (<= (+ ?x6838 ?x8549 ?x9014 ?x5191 S_4 (* (- 1.0) S_1)) 0.0))))
 (let (($x2816 (>= S_4 (+ A_3 (* (- 1.0) L_1)))))
 (let (($x19173 (or $x74 (<= (+ ?x6838 ?x8549 (* (- 1.0) A_0) L_0 ?x9014 ?x5191 S_4) 0.0))))
 (let ((?x268 (* (- 1.0) S_2)))
 (let ((?x9018 (* (- (/ 3.0 2.0)) A_3)))
 (let ((?x8979 (* (/ 3.0 2.0) A_1)))
 (let ((?x9024 (* (/ 3.0 2.0) L_3)))
 (let ((?x8984 (* (- (/ 3.0 2.0)) L_1)))
 (let ((?x519 (* (- 1.0) S_4)))
 (let ((?x6777 (* (/ 1.0 2.0) A_3)))
 (let ((?x6783 (* (- (/ 1.0 2.0)) A_1)))
 (let ((?x6738 (* (- (/ 1.0 2.0)) L_3)))
 (let ((?x6767 (* (/ 1.0 2.0) L_1)))
 (let (($x54 (= L_1 L_0)))
 (let (($x8829 (<= (+ (* (- 1.0) L_1) L_3 A_1 (* (- 1.0) A_3) ?x1068 S_1) 0.0)))
 (let (($x10315 (<= (+ L_0 (* (- 1.0) A_0) (* (- (/ 1.0 2.0)) S_4) (* (/ 3.0 2.0) S_1)) 0.0)))
 (let ((?x543 (* (- 1.0) L_3)))
 (let ((?x304 (* (- 1.0) A_2)))
 (let ((?x525 (* (- 1.0) S_3)))
 (let (($x1797 (= L_2 L_0)))
 (let (($x1263 (not (= L_0 L_1))))
 (let ((?x2484 (* (- 5.0) A_2)))
 (let ((?x2165 (* 5.0 A_1)))
 (let ((?x2550 (* (- 5.0) L_1)))
 (let ((?x2391 (* 5.0 L_2)))
 (let (($x64 (= L_2 L_1)))
 (let ((?x8064 (* (- 3.0) A_2)))
 (let ((?x2432 (* 3.0 A_1)))
 (let ((?x9159 (* (- 3.0) L_1)))
 (let ((?x7853 (* 3.0 L_2)))
 (let (($x1709 (<= (+ (* 2.0 L_2) ?x6838 ?x9014 (* (- 2.0) A_2) ?x1068 S_1) 0.0)))
 (let ((?x7553 (* (- 5.0) A_3)))
 (let ((?x1463 (* 5.0 L_3)))
 (let ((?x7569 (* 5.0 A_2)))
 (let ((?x8079 (* (- 5.0) L_2)))
 (let ((?x7834 (* (- 3.0) A_3)))
 (let ((?x6761 (* 3.0 L_3)))
 (let ((?x1847 (* 3.0 A_2)))
 (let ((?x3045 (* (- 3.0) L_2)))
 (let (($x8005 (<= (+ (* (- 2.0) L_2) (* 2.0 A_2) ?x8549 ?x5191 ?x1068 S_1) 0.0)))
 (let ((?x6810 (* (- (/ 1.0 2.0)) A_3)))
 (let ((?x8959 (* (/ 1.0 2.0) A_1)))
 (let ((?x3136 (* (- 1.0) A_0)))
 (let ((?x6868 (* (/ 1.0 2.0) L_3)))
 (let ((?x8960 (* (- (/ 1.0 2.0)) L_1)))
 (let (($x9678 (or $x54 (<= (+ L_1 ?x543 (* (- 1.0) A_1) A_3 ?x519 S_1) 0.0))))
 (let (($x15617 (or $x74 (<= (+ ?x8984 ?x9024 S_3 ?x8979 ?x9018 (* (- 1.0) S_1)) 0.0))))
 (let (($x2372 (<= (+ (* 2.0 L_2) L_0 ?x6838 ?x9014 (* (- 2.0) A_2) S_2 ?x3136) 0.0)))
 (let (($x2180 (<= (+ (* (- 2.0) L_2) ?x525 (* 2.0 A_2) ?x8549 ?x5191 S_4) 0.0)))
 (let (($x8397 (<= (+ (* (- 2.0) L_2) ?x3136 L_0 (* 2.0 A_2) ?x8549 ?x5191 S_2) 0.0)))
 (let ((?x3573 (* 2.0 A_3)))
 (let ((?x1885 (* (- 2.0) L_3)))
 (let ((?x7623 (* (- 2.0) A_2)))
 (let ((?x3535 (* 2.0 L_2)))
 (let ((?x309 (* (- 1.0) S_1)))
 (let ((?x2851 (* (- 4.0) A_3)))
 (let ((?x4957 (* 4.0 L_3)))
 (let ((?x8684 (* 4.0 A_2)))
 (let ((?x2338 (* (- 4.0) L_2)))
 (let (($x15263 (or $x1263 $x1797 (<= (+ ?x3535 (* (- 1.0) L_0) ?x9014 ?x7623 S_2 ?x3136) 0.0))))
 (let (($x6350 (or $x2816 (<= (+ L_0 ?x3136 (* (- 2.0) S_4) (* 3.0 S_2)) 0.0))))
 (let (($x4408 (<= (+ (* (- 1.0) L_1) ?x3136 L_0 L_3 (* (- 1.0) A_3) A_1 S_2) 0.0)))
 (let (($x7889 (<= (+ (* (- 1.0) L_1) L_3 (* (- 1.0) A_3) A_1 S_2 ?x309) 0.0)))
 (let (($x8168 (<= (+ (* (- 1.0) L_2) ?x3136 L_0 A_2 L_3 (* (- 1.0) A_3) S_1) 0.0)))
 (let (($x15569 (or $x74 (<= (+ (* (- 1.0) L_2) A_2 L_3 (* (- 1.0) A_3)) (- 5.0)))))
 (let (($x861 (<= L_1 L_0)))
 (let ((?x5763 (* (/ 3.0 2.0) A_3)))
 (let ((?x7413 (* (- (/ 3.0 2.0)) A_1)))
 (let ((?x8889 (* (- (/ 3.0 2.0)) L_3)))
 (let ((?x8816 (* (/ 3.0 2.0) L_1)))
 (let (($x4634 (or $x54 (<= (+ L_1 ?x543 ?x525 (* (- 1.0) A_1) A_3 S_0) 0.0))))
 (let (($x18999 (or $x64 (<= (+ (* (- 1.0) L_1) ?x3535 ?x7623 ?x543 A_3 A_1) 0.0))))
 (let ((?x381 (* (- 1.0) A_1)))
 (let ((?x266 (* (- 1.0) A_3)))
 (let ((?x8674 (* 2.0 A_2)))
 (let ((?x2175 (* (- 2.0) L_2)))
 (let (($x2717 (<= (+ ?x2175 (* 2.0 L_1) (* (- 2.0) A_1) ?x8674 S_0 ?x525) 0.0)))
 (let (($x6095 (or $x54 (<= (+ (* (- 1.0) L_2) L_1 ?x381 A_2 S_1 ?x525) 0.0))))
 (let (($x19504 (or $x64 (<= (+ L_2 L_0 (* (- 1.0) L_1) A_1 ?x304 ?x3136 S_1) 0.0))))
 (let ((?x1046 (* (- 4.0) A_2)))
 (let ((?x2220 (* 4.0 A_1)))
 (let ((?x2294 (* (- 4.0) L_1)))
 (let ((?x7466 (* 4.0 L_2)))
 (let (($x314 (or $x54 (<= (+ (* (- 1.0) L_2) L_1 ?x381 A_2 S_0 ?x268) 0.0))))
 (let (($x549 (not (<= (+ A_1 (* (- 1.0) L_1)) S_3))))
 (let (($x4778 (or $x74 (<= (+ (* (- 1.0) L_1) L_3 ?x525 A_1 ?x266 S_4) 0.0))))
 (let (($x2342 (= L_3 L_0)))
 (let (($x1326 (not (= L_0 L_2))))
 (let (($x15501 (or $x1326 $x2342 (<= (+ (* (- 2.0) L_0) ?x8674 ?x8549 ?x5191 S_2 ?x309) 0.0))))
 (let (($x15657 (or $x1263 $x74 (<= (+ (* (- (/ 3.0 2.0)) L_0) ?x9024 S_3 ?x8979 ?x9018 ?x309) 0.0))))
 (let (($x4566 (or $x74 (<= (+ (* (- 1.0) L_1) L_3 S_3 A_1 ?x266 ?x268) 0.0))))
 (let (($x15564 (or $x1326 (<= (+ (* (- 3.0) L_0) ?x1847 ?x6761 ?x7834 S_4 ?x268) 0.0) $x2342)))
 (let (($x1024 (or $x74 (not (<= L_3 L_2)))))
 (let (($x1482 (or $x54 (not $x861))))
 (let (($x860 (not (<= L_2 L_1))))
 (let (($x450 (or $x64 $x860)))
 (let ((?x517 (* (- 1.0) L_2)))
 (let ((?x518 (+ A_2 ?x517)))
 (let (($x627 (<= ?x518 S_4)))
 (let ((?x523 (* (- 1.0) L_0)))
 (let ((?x792 (+ A_0 ?x523)))
 (let (($x787 (<= ?x792 S_3)))
 (let (($x125 (>= A_4 A_3)))
 (let (($x124 (>= A_3 A_2)))
 (let (($x123 (>= A_2 A_1)))
 (let (($x117 (>= S_3 S_2)))
 (let (($x114 (>= S_2 S_1)))
 (let (($x36 (>= L_0 L0)))
 (let (($x111 (>= S_1 S_0)))
 (let (($x2689 (<= S_4 (+ A_4 ?x517))))
 (and $x2689 $x111 $x36 $x114 $x117 $x123 $x124 $x125 $x787 $x627 $x450 $x1482 $x1024 (or $x1263 $x1797 (<= (+ L_2 ?x304 ?x543 A_3 S_0 ?x268) 0.0)) $x15564 $x4566 $x15657 $x15501 $x4778 $x549 (or $x74 (<= (+ ?x2175 ?x8674 ?x8549 ?x5191 S_2 ?x309) 0.0)) (or $x64 (<= (+ L_2 (* (- 1.0) L_1) A_1 ?x304) (- 5.0))) (or $x64 (<= (+ ?x7853 ?x9159 ?x2432 ?x8064 S_4 ?x268) 0.0)) (or $x64 (<= (+ ?x7466 L_0 ?x2294 ?x2220 ?x1046 S_4 ?x3136) 0.0)) $x314 (or $x64 (<= (+ ?x7466 ?x2294 ?x2220 ?x1046 S_4 ?x309) 0.0)) $x19504 $x6095 (or $x54 $x2717) (or $x74 $x861 (<= (+ L_1 ?x2175 ?x8674 L_3 ?x266 ?x381) 0.0)) $x18999 $x4634 (or $x54 (<= (+ ?x6767 ?x6738 ?x6783 ?x6777 S_0 ?x268) 0.0)) (or (<= (+ ?x8816 ?x8889 ?x7413 ?x5763 S_0 ?x519) 0.0) $x861) $x15569 (or (<= (+ (* (/ 1.0 3.0) S_0) (* (- (/ 1.0 3.0)) S_4)) (- 5.0)) $x2816) (or $x74 $x8168) (or $x74 (<= (+ ?x3045 ?x1847 ?x6761 ?x7834 S_4 ?x268) 0.0)) (or $x74 (<= (+ ?x2338 ?x3136 L_0 ?x8684 ?x4957 ?x2851 S_4) 0.0)) (or $x74 (<= (+ ?x8960 ?x6868 ?x8959 ?x6810) (- 5.0))) (or $x74 $x7889) (or $x74 $x4408) $x6350 (or $x2816 (<= (+ (* (- 2.0) S_4) (* 3.0 S_2) ?x309) 0.0)) (or $x64 (<= (+ ?x3535 ?x6838 ?x9014 ?x7623 S_4 ?x525) 0.0)) (or $x64 (<= (+ ?x3535 ?x6838 ?x9014 ?x7623 S_2 ?x309) 0.0)) $x15263 (or $x74 (<= (+ ?x2338 ?x8684 ?x4957 ?x2851 S_4 ?x309) 0.0)) (or $x1263 $x1797 (<= (+ ?x3535 ?x525 ?x7623 ?x1885 ?x3573 S_0) 0.0)) (or $x74 $x8397) (or $x74 $x2180) (or $x64 $x2372) $x15617 (or $x74 (<= (+ ?x8984 ?x9024 ?x3136 S_3 L_0 ?x8979 ?x9018) 0.0)) $x9678 (or $x74 (<= (+ ?x8960 ?x6868 ?x3136 L_0 ?x8959 ?x6810 S_1) 0.0)) (or $x54 (<= (+ ?x6767 ?x6738 ?x525 ?x6783 ?x6777 S_1) 0.0)) (or $x74 $x8005) (or $x74 (<= (+ ?x3045 ?x1847 ?x6761 ?x7834 ?x1068 S_2) 0.0)) (or $x74 (<= (+ ?x8079 ?x7569 ?x1463 ?x7553 ?x1068 S_4) 0.0)) (or $x64 $x1709) (or $x64 (<= (+ ?x7853 ?x9159 ?x2432 ?x8064 ?x1068 S_2) 0.0)) (or $x64 (<= (+ ?x2391 ?x2550 ?x2165 ?x2484 ?x1068 S_4) 0.0)) (or $x1263 $x1797 (<= (+ L_2 ?x525 ?x304 ?x543 A_3 S_1) 0.0)) (or $x2816 (<= (+ ?x1068 (* (- 3.0) S_4) (* 4.0 S_2)) 0.0)) (or $x2816 (<= (+ (* (- (/ 1.0 2.0)) S_0) (* (- (/ 1.0 2.0)) S_4) S_1) 0.0)) (or $x10315 $x2816) (or $x74 $x8829) (or $x74 (<= (+ ?x8984 ?x9024 ?x8979 ?x9018 ?x1068 S_2) 0.0)) (or $x54 (<= (+ ?x6767 ?x6738 ?x6783 ?x6777 ?x519 S_2) 0.0)) (or $x2816 (<= (+ ?x519 S_2) (- 5.0))) (or $x74 (<= (+ ?x8984 ?x9024 ?x8979 ?x9018 S_4 ?x268) 0.0)) $x19173 (or $x2816 (<= (+ ?x519 S_1) (- 10.0))) $x19186 (or $x74 (<= (+ ?x9105 ?x8834 ?x8839 ?x8833 ?x1068 S_4) 0.0)) (or $x74 (<= (+ ?x6838 ?x8549 S_3 ?x9014 ?x5191 ?x1068) 0.0)) $x3910 $x37 $x4971 (<= (+ (* 3.0 S_0) S_4 (* (- 4.0) S_2)) 0.0) (<= (+ L_1 S_0 S_4 ?x268 ?x266) 0.0) (<= (+ (* (- (/ 1.0 2.0)) S_3) (* (/ 1.0 2.0) S_0)) (- 5.0)) (<= (+ S_3 (* 2.0 S_0) (* (- 3.0) S_2)) 0.0) (<= (+ (* (- 2.0) S_3) S_0 S_4) 0.0) $x791 $x9969 (<= (+ (* (- 3.0) S_3) S_4 (* 2.0 S_1)) 0.0) (<= (+ (* (- (/ 2.0 3.0)) S_3) (* (- (/ 1.0 3.0)) S_0) S_1) 0.0) (<= (+ ?x525 S_1) (- 5.0)) (<= (+ L_1 ?x525 S_4 ?x266 S_1) 0.0))))))))))))))))))))))))))))))))))))))))))))))))))))))))))))))))))))))))))))))))))))))))))))))))))))))))))))))))))))))))))))))))
(check-sat)
